lp_solve/benchmarks/bsort100.lp
Maximize

69 dSta_0 + 63 d0_26 + 33 d1_2.v0 + 33 d1_2.v1 + 36 d1_1.v0 + 36 d1_1.v1 + 34 d2_15 + 2 d3_11.v0 + 2 d3_11.v1 + 36 d4_5.v00 + 6 d4_5.v01 + 6 d4_5.v10 + 6 d4_5.v11 + 1 d4_8.v00 + 1 d4_8.v01 + 1 d4_8.v10 + 1 d4_8.v11 + 34 d5_6.v00 + 34 d5_6.v01 + 34 d5_6.v10 + 34 d5_6.v11 + 5 d5_7.v00 + 5 d5_7.v01 + 5 d5_7.v10 + 5 d5_7.v11 + 5 d6_7.v00 + 5 d6_7.v01 + 5 d6_7.v10 + 5 d6_7.v11 + 1 d7_8.v00 + 1 d7_8.v01 + 1 d7_8.v10 + 1 d7_8.v11 + 2 d7_4.v00 + 2 d7_4.v01 + 2 d7_4.v10 + 2 d7_4.v11 + 3 d8_9.v0 + 3 d8_9.v1 + 2 d8_10.v0 + 2 d8_10.v1 + 2 d9_10.v0 + 2 d9_10.v1 + 5 d9_3.v0 + 5 d9_3.v1 + 36 d11_12.v0 + 6 d11_12.v1 + 1 d11_8.v0 + 1 d11_8.v1 + 34 d12_13.v0 + 34 d12_13.v1 + 5 d12_14.v0 + 5 d12_14.v1 + 5 d13_14.v0 + 5 d13_14.v1 + 2 d14_4.v0 + 2 d14_4.v1 + 1 d14_8.v0 + 1 d14_8.v1 + 31 d15_22 + 36 d16_17.v0 + 6 d16_17.v1 + 1 d16_20.v0 + 1 d16_20.v1 + 34 d17_18.v0 + 34 d17_18.v1 + 5 d17_19.v0 + 5 d17_19.v1 + 5 d18_19.v0 + 5 d18_19.v1 + 1 d19_20.v0 + 1 d19_20.v1 + 2 d19_16.v0 + 2 d19_16.v1 + 32 d20_21 + 2 d20_10 + 5 d21_3 + 2 d21_10 + 36 d22_23 + 1 d22_20 + 34 d23_24 + 63 d23_25 + 34 d24_25 + 2 d25_16 + 1 d25_20 + 36 d26_1 + 34 d26_2


Subject to


\ === tcfg constraints ===
dSta_0 = 1
b0 - d0_26 = 0
b0 - dSta_0 = 0
b1 - d1_2 - d1_1 = 0
b1 - d1_1 - d26_1 = 0
b2 - d2_15 = 0
b2 - d1_2 - d26_2 = 0
b3 - d3_11 = 0
b3 - d9_3 - d21_3 = 0
b4 - d4_5 - d4_8 = 0
b4 - d7_4 - d14_4 = 0
b5 - d5_6 - d5_7 = 0
b5 - d4_5 = 0
b6 - d6_7 = 0
b6 - d5_6 = 0
b7 - d7_8 - d7_4 = 0
b7 - d5_7 - d6_7 = 0
b8 - d8_9 - d8_10 = 0
b8 - d4_8 - d7_8 - d11_8 - d14_8 = 0
b9 - d9_10 - d9_3 = 0
b9 - d8_9 = 0
b10 - d8_10 - d9_10 - d20_10 - d21_10 = 0
b11 - d11_12 - d11_8 = 0
b11 - d3_11 = 0
b12 - d12_13 - d12_14 = 0
b12 - d11_12 = 0
b13 - d13_14 = 0
b13 - d12_13 = 0
b14 - d14_4 - d14_8 = 0
b14 - d12_14 - d13_14 = 0
b15 - d15_22 = 0
b15 - d2_15 = 0
b16 - d16_17 - d16_20 = 0
b16 - d19_16 - d25_16 = 0
b17 - d17_18 - d17_19 = 0
b17 - d16_17 = 0
b18 - d18_19 = 0
b18 - d17_18 = 0
b19 - d19_20 - d19_16 = 0
b19 - d17_19 - d18_19 = 0
b20 - d20_21 - d20_10 = 0
b20 - d16_20 - d19_20 - d22_20 - d25_20 = 0
b21 - d21_3 - d21_10 = 0
b21 - d20_21 = 0
b22 - d22_23 - d22_20 = 0
b22 - d15_22 = 0
b23 - d23_24 - d23_25 = 0
b23 - d22_23 = 0
b24 - d24_25 = 0
b24 - d23_24 = 0
b25 - d25_16 - d25_20 = 0
b25 - d23_25 - d24_25 = 0
b26 - d26_1 - d26_2 = 0
b26 - d0_26 = 0


\ === context constraints ===

\(a)
d1_2 - d1_2.v0 - d1_2.v1 = 0
d1_1 - d1_1.v0 - d1_1.v1 = 0
d3_11 - d3_11.v0 - d3_11.v1 = 0
d4_5 - d4_5.v00 - d4_5.v01 - d4_5.v10 - d4_5.v11 = 0
d4_8 - d4_8.v00 - d4_8.v01 - d4_8.v10 - d4_8.v11 = 0
d5_6 - d5_6.v00 - d5_6.v01 - d5_6.v10 - d5_6.v11 = 0
d5_7 - d5_7.v00 - d5_7.v01 - d5_7.v10 - d5_7.v11 = 0
d6_7 - d6_7.v00 - d6_7.v01 - d6_7.v10 - d6_7.v11 = 0
d7_8 - d7_8.v00 - d7_8.v01 - d7_8.v10 - d7_8.v11 = 0
d7_4 - d7_4.v00 - d7_4.v01 - d7_4.v10 - d7_4.v11 = 0
d8_9 - d8_9.v0 - d8_9.v1 = 0
d8_10 - d8_10.v0 - d8_10.v1 = 0
d9_10 - d9_10.v0 - d9_10.v1 = 0
d9_3 - d9_3.v0 - d9_3.v1 = 0
d11_12 - d11_12.v0 - d11_12.v1 = 0
d11_8 - d11_8.v0 - d11_8.v1 = 0
d12_13 - d12_13.v0 - d12_13.v1 = 0
d12_14 - d12_14.v0 - d12_14.v1 = 0
d13_14 - d13_14.v0 - d13_14.v1 = 0
d14_4 - d14_4.v0 - d14_4.v1 = 0
d14_8 - d14_8.v0 - d14_8.v1 = 0
d16_17 - d16_17.v0 - d16_17.v1 = 0
d16_20 - d16_20.v0 - d16_20.v1 = 0
d17_18 - d17_18.v0 - d17_18.v1 = 0
d17_19 - d17_19.v0 - d17_19.v1 = 0
d18_19 - d18_19.v0 - d18_19.v1 = 0
d19_20 - d19_20.v0 - d19_20.v1 = 0
d19_16 - d19_16.v0 - d19_16.v1 = 0

\(b)
b1.v0 - d1_2.v0 - d1_1.v0 = 0
b1.v1 - d1_2.v1 - d1_1.v1 = 0
b3.v0 - d3_11.v0 = 0
b3.v1 - d3_11.v1 = 0
b4.v00 - d4_5.v00 - d4_8.v00 = 0
b4.v01 - d4_5.v01 - d4_8.v01 = 0
b4.v10 - d4_5.v10 - d4_8.v10 = 0
b4.v11 - d4_5.v11 - d4_8.v11 = 0
b5.v00 - d5_6.v00 - d5_7.v00 = 0
b5.v01 - d5_6.v01 - d5_7.v01 = 0
b5.v10 - d5_6.v10 - d5_7.v10 = 0
b5.v11 - d5_6.v11 - d5_7.v11 = 0
b6.v00 - d6_7.v00 = 0
b6.v01 - d6_7.v01 = 0
b6.v10 - d6_7.v10 = 0
b6.v11 - d6_7.v11 = 0
b7.v00 - d7_8.v00 - d7_4.v00 = 0
b7.v01 - d7_8.v01 - d7_4.v01 = 0
b7.v10 - d7_8.v10 - d7_4.v10 = 0
b7.v11 - d7_8.v11 - d7_4.v11 = 0
b8.v0 - d8_9.v0 - d8_10.v0 = 0
b8.v1 - d8_9.v1 - d8_10.v1 = 0
b9.v0 - d9_10.v0 - d9_3.v0 = 0
b9.v1 - d9_10.v1 - d9_3.v1 = 0
b11.v0 - d11_12.v0 - d11_8.v0 = 0
b11.v1 - d11_12.v1 - d11_8.v1 = 0
b12.v0 - d12_13.v0 - d12_14.v0 = 0
b12.v1 - d12_13.v1 - d12_14.v1 = 0
b13.v0 - d13_14.v0 = 0
b13.v1 - d13_14.v1 = 0
b14.v0 - d14_4.v0 - d14_8.v0 = 0
b14.v1 - d14_4.v1 - d14_8.v1 = 0
b16.v0 - d16_17.v0 - d16_20.v0 = 0
b16.v1 - d16_17.v1 - d16_20.v1 = 0
b17.v0 - d17_18.v0 - d17_19.v0 = 0
b17.v1 - d17_18.v1 - d17_19.v1 = 0
b18.v0 - d18_19.v0 = 0
b18.v1 - d18_19.v1 = 0
b19.v0 - d19_20.v0 - d19_16.v0 = 0
b19.v1 - d19_20.v1 - d19_16.v1 = 0

\(c)
b1 - b1.v0 - b1.v1 = 0
b3 - b3.v0 - b3.v1 = 0
b4 - b4.v00 - b4.v01 - b4.v10 - b4.v11 = 0
b5 - b5.v00 - b5.v01 - b5.v10 - b5.v11 = 0
b6 - b6.v00 - b6.v01 - b6.v10 - b6.v11 = 0
b7 - b7.v00 - b7.v01 - b7.v10 - b7.v11 = 0
b8 - b8.v0 - b8.v1 = 0
b9 - b9.v0 - b9.v1 = 0
b11 - b11.v0 - b11.v1 = 0
b12 - b12.v0 - b12.v1 = 0
b13 - b13.v0 - b13.v1 = 0
b14 - b14.v0 - b14.v1 = 0
b16 - b16.v0 - b16.v1 = 0
b17 - b17.v0 - b17.v1 = 0
b18 - b18.v0 - b18.v1 = 0
b19 - b19.v0 - b19.v1 = 0

\(d)
b1.v0 - d26_1 = 0
b4.v00 - d14_4.v0 = 0
b4.v10 - d14_4.v1 = 0
b3.v0 - d21_3 = 0
b16.v0 - d25_16 = 0

\(e)
b1.v1 - d1_1.v0 - d1_1.v1 = 0
b1.v1 - 1022 d1_1.v0 <= 0
b4.v01 - d7_4.v00 - d7_4.v01 = 0
b4.v01 - 510 d7_4.v00 <= 0
b4.v11 - d7_4.v10 - d7_4.v11 = 0
b4.v11 - 510 d7_4.v10 <= 0
b3.v1 - d9_3.v0 - d9_3.v1 = 0
b3.v1 - 1022 d9_3.v0 <= 0
b16.v1 - d19_16.v0 - d19_16.v1 = 0
b16.v1 - 510 d19_16.v0 <= 0

\(f)
d1_2 - d1_2.v0 - d1_2.v1 = 0
d7_8.v0 - d7_8.v00 - d7_8.v01 = 0
d4_8.v0 - d4_8.v00 - d4_8.v01 = 0
d7_8.v1 - d7_8.v10 - d7_8.v11 = 0
d4_8.v1 - d4_8.v10 - d4_8.v11 = 0
d9_10 - d9_10.v0 - d9_10.v1 = 0
d8_10 - d8_10.v0 - d8_10.v1 = 0
d19_20 - d19_20.v0 - d19_20.v1 = 0
d16_20 - d16_20.v0 - d16_20.v1 = 0

\(g)
b5.v00 - d4_5.v00 = 0
b5.v01 - d4_5.v01 = 0
b5.v10 - d4_5.v10 = 0
b5.v11 - d4_5.v11 = 0
b6.v00 - d5_6.v00 = 0
b6.v01 - d5_6.v01 = 0
b6.v10 - d5_6.v10 = 0
b6.v11 - d5_6.v11 = 0
b7.v00 - d5_7.v00 - d6_7.v00 = 0
b7.v01 - d5_7.v01 - d6_7.v01 = 0
b7.v10 - d5_7.v10 - d6_7.v10 = 0
b7.v11 - d5_7.v11 - d6_7.v11 = 0
b8.v0 - d4_8.v0 - d7_8.v0 - d11_8.v0 - d14_8.v0 = 0
b8.v1 - d4_8.v1 - d7_8.v1 - d11_8.v1 - d14_8.v1 = 0
b9.v0 - d8_9.v0 = 0
b9.v1 - d8_9.v1 = 0
b11.v0 - d3_11.v0 = 0
b11.v1 - d3_11.v1 = 0
b12.v0 - d11_12.v0 = 0
b12.v1 - d11_12.v1 = 0
b13.v0 - d12_13.v0 = 0
b13.v1 - d12_13.v1 = 0
b14.v0 - d12_14.v0 - d13_14.v0 = 0
b14.v1 - d12_14.v1 - d13_14.v1 = 0
b17.v0 - d16_17.v0 = 0
b17.v1 - d16_17.v1 = 0
b18.v0 - d17_18.v0 = 0
b18.v1 - d17_18.v1 = 0
b19.v0 - d17_19.v0 - d18_19.v0 = 0
b19.v1 - d17_19.v1 - d18_19.v1 = 0

\ === header constraints ===
b0 <= 1
b1 - 1023 b0 <= 0
b1 - 1023 d26_1 <= 0
b4 - 511 b3 <= 0
b4 - 511 d14_4 <= 0
b3 - 1023 b0 <= 0
b3 - 1023 d21_3 <= 0
b16 - 511 b0 <= 0
b16 - 511 d25_16 <= 0

Generals

Sta
b0
d0_26
b1
d1_2
d1_1
b2
d2_15
b3
d3_11
b4
d4_5
d4_8
b5
d5_6
d5_7
b6
d6_7
b7
d7_8
d7_4
b8
d8_9
d8_10
b9
d9_10
d9_3
b10
b11
d11_12
d11_8
b12
d12_13
d12_14
b13
d13_14
b14
d14_4
d14_8
b15
d15_22
b16
d16_17
d16_20
b17
d17_18
d17_19
b18
d18_19
b19
d19_20
d19_16
b20
d20_21
d20_10
b21
d21_3
d21_10
b22
d22_23
d22_20
b23
d23_24
d23_25
b24
d24_25
b25
d25_16
d25_20
b26
d26_1
d26_2
b1.d0
b5.d0
b5.d1
b6.d0
b6.d1
b12.d0
b12.d1
b13.d0
b13.d1
b17.d0
b17.d1
b18.d0
b18.d1
b23.d0
b23.d1
b24.d0
b24.d1
b26.d0
d0_26
d1_2.v0
d1_2.v1
d1_1.v0
d1_1.v1
d2_15
d3_11.v0
d3_11.v1
d4_5.v00
d4_5.v01
d4_5.v10
d4_5.v11
d4_8.v00
d4_8.v01
d4_8.v10
d4_8.v11
d5_6.v00
d5_6.v01
d5_6.v10
d5_6.v11
d5_7.v00
d5_7.v01
d5_7.v10
d5_7.v11
d6_7.v00
d6_7.v01
d6_7.v10
d6_7.v11
d7_8.v00
d7_8.v01
d7_8.v10
d7_8.v11
d7_4.v00
d7_4.v01
d7_4.v10
d7_4.v11
d8_9.v0
d8_9.v1
d8_10.v0
d8_10.v1
d9_10.v0
d9_10.v1
d9_3.v0
d9_3.v1
d11_12.v0
d11_12.v1
d11_8.v0
d11_8.v1
d12_13.v0
d12_13.v1
d12_14.v0
d12_14.v1
d13_14.v0
d13_14.v1
d14_4.v0
d14_4.v1
d14_8.v0
d14_8.v1
d15_22
d16_17.v0
d16_17.v1
d16_20.v0
d16_20.v1
d17_18.v0
d17_18.v1
d17_19.v0
d17_19.v1
d18_19.v0
d18_19.v1
d19_20.v0
d19_20.v1
d19_16.v0
d19_16.v1
d20_21
d20_10
d21_3
d21_10
d22_23
d22_20
d23_24
d23_25
d24_25
d25_16
d25_20
d26_1
d26_2

End
\ total_cons: 200 	total_vars: 90
