lp_solve/result/bsort100.res
set_XLI: Successfully loaded './xli_CPLEX'

Value of objective function: 2.4688e+07

Actual values of the variables:
dSta_0                          1
d0_26                           1
d1_2.v0                         0
d1_2.v1                         1
d1_1.v0                         1
d1_1.v1                      1021
d2_15                           1
d3_11.v0                        1
d3_11.v1                     1022
d4_5.v00                        1
d4_5.v01                      510
d4_5.v10                     1022
d4_5.v11                   521220
d4_8.v00                        0
d4_8.v01                        0
d4_8.v10                        0
d4_8.v11                        0
d5_6.v00                        1
d5_6.v01                      510
d5_6.v10                     1022
d5_6.v11                   521220
d5_7.v00                        0
d5_7.v01                        0
d5_7.v10                        0
d5_7.v11                        0
d6_7.v00                        1
d6_7.v01                      510
d6_7.v10                     1022
d6_7.v11                   521220
d7_8.v00                        0
d7_8.v01                        1
d7_8.v10                        0
d7_8.v11                     1022
d7_4.v00                        1
d7_4.v01                      509
d7_4.v10                     1022
d7_4.v11                   520198
d8_9.v0                         1
d8_9.v1                      1022
d8_10.v0                        0
d8_10.v1                        0
d9_10.v0                        0
d9_10.v1                        1
d9_3.v0                         1
d9_3.v1                      1021
d11_12.v0                       1
d11_12.v1                    1022
d11_8.v0                        0
d11_8.v1                        0
d12_13.v0                       1
d12_13.v1                    1022
d12_14.v0                       0
d12_14.v1                       0
d13_14.v0                       1
d13_14.v1                    1022
d14_4.v0                        1
d14_4.v1                     1022
d14_8.v0                        0
d14_8.v1                        0
d15_22                          1
d16_17.v0                       1
d16_17.v1                     510
d16_20.v0                       0
d16_20.v1                       0
d17_18.v0                       1
d17_18.v1                     510
d17_19.v0                       0
d17_19.v1                       0
d18_19.v0                       1
d18_19.v1                     510
d19_20.v0                       0
d19_20.v1                       1
d19_16.v0                       1
d19_16.v1                     509
d20_21                          1
d20_10                          0
d21_3                           1
d21_10                          0
d22_23                          1
d22_20                          0
d23_24                          1
d23_25                          0
d24_25                          1
d25_16                          1
d25_20                          0
d26_1                           1
d26_2                           0
b0                              1
b1                           1023
d1_2                            1
d1_1                         1022
b2                              1
b3                           1023
d3_11                        1023
d9_3                         1022
b4                         522753
d4_5                       522753
d4_8                            0
d7_4                       521730
d14_4                        1023
b5                         522753
d5_6                       522753
d5_7                            0
b6                         522753
d6_7                       522753
b7                         522753
d7_8                         1023
b8                           1023
d8_9                         1023
d8_10                           0
d11_8                           0
d14_8                           0
b9                           1023
d9_10                           1
b10                             1
b11                          1023
d11_12                       1023
b12                          1023
d12_13                       1023
d12_14                          0
b13                          1023
d13_14                       1023
b14                          1023
b15                             1
b16                           511
d16_17                        511
d16_20                          0
d19_16                        510
b17                           511
d17_18                        511
d17_19                          0
b18                           511
d18_19                        511
b19                           511
d19_20                          1
b20                             1
b21                             1
b22                             1
b23                             1
b24                             1
b25                             1
b26                             1
b1.v0                           1
b1.v1                        1022
b3.v0                           1
b3.v1                        1022
b4.v00                          1
b4.v01                        510
b4.v10                       1022
b4.v11                     521220
b5.v00                          1
b5.v01                        510
b5.v10                       1022
b5.v11                     521220
b6.v00                          1
b6.v01                        510
b6.v10                       1022
b6.v11                     521220
b7.v00                          1
b7.v01                        510
b7.v10                       1022
b7.v11                     521220
b8.v0                           1
b8.v1                        1022
b9.v0                           1
b9.v1                        1022
b11.v0                          1
b11.v1                       1022
b12.v0                          1
b12.v1                       1022
b13.v0                          1
b13.v1                       1022
b14.v0                          1
b14.v1                       1022
b16.v0                          1
b16.v1                        510
b17.v0                          1
b17.v1                        510
b18.v0                          1
b18.v1                        510
b19.v0                          1
b19.v1                        510
d7_8.v0                         1
d4_8.v0                         0
d7_8.v1                      1022
d4_8.v1                         0
